sat
(
  (define-fun I () String
    "aca")
  (define-fun D () String
    "aaaaababeacbaeecffbbfefabbfaaacdace")
  (define-fun G () String
    "a")
  (define-fun A () String
    "aaddfdaadfaefabdaaaaceeecedfbcecccd")
)
